sat
(:eliminated-vars              2
 :max-memory                   18.15
 :memory                       18.05
 :nlsat-conflicts              11
 :nlsat-decisions              3
 :nlsat-irrational-assignments 4
 :nlsat-propagations           49
 :nlsat-stages                 15
 :num-allocs                   55173
 :rlimit-count                 16267
 :time                         0.01
 :total-time                   0.02)
